B
1.0
     3.477689  0.0000000000000000    0.0000000000000000
     0.0000000000000000    6.329854     0.0000000000000000
     0.0000000  -0.9356500000000000      13.800220000000000008
Mo Te
 4 8
 Direct
0.25    0.181383114     0.007357733
0.75    0.320596753     0.506445642
-0.25   -0.181383114    -0.007357733
-0.75   -0.320596753    -0.506445642
0.25    0.587543578     0.10334596
0.75    0.098041179     0.149168259
0.75    0.55893919      0.351261894
0.25    0.055250925     0.396247461
-0.25   -0.587543578    -0.10334596
-0.75   -0.098041179    -0.149168259
-0.75   -0.55893919     -0.351261894
-0.25   -0.055250925    -0.396247461
